DIMACS_lns/graph-1000-693.col
p edge 1000 1811
e 1 270
e 1 541
e 1 169
e 1 690
e 2 313
e 2 238
e 2 948
e 2 63
e 2 363
e 2 475
e 2 368
e 2 298
e 3 950
e 3 85
e 3 586
e 4 716
e 4 33
e 4 915
e 4 761
e 4 987
e 4 860
e 4 706
e 5 199
e 5 118
e 5 189
e 7 460
e 7 541
e 7 326
e 7 966
e 7 964
e 7 533
e 8 126
e 8 685
e 8 150
e 8 578
e 8 917
e 9 954
e 9 959
e 9 785
e 9 311
e 10 585
e 10 21
e 10 355
e 10 254
e 10 640
e 11 861
e 11 386
e 11 414
e 11 368
e 12 216
e 12 980
e 12 815
e 12 280
e 13 360
e 13 344
e 13 858
e 13 803
e 13 156
e 13 400
e 14 979
e 14 967
e 14 464
e 15 848
e 15 868
e 15 383
e 15 323
e 15 99
e 16 698
e 16 745
e 16 214
e 18 947
e 18 551
e 18 149
e 21 435
e 21 436
e 21 284
e 23 361
e 23 285
e 23 406
e 24 275
e 24 302
e 24 914
e 24 858
e 25 708
e 25 226
e 25 523
e 25 348
e 25 447
e 25 584
e 27 791
e 27 189
e 27 197
e 27 172
e 27 971
e 28 386
e 28 572
e 28 964
e 28 381
e 28 34
e 29 346
e 29 817
e 29 663
e 30 615
e 30 592
e 30 637
e 30 679
e 30 852
e 31 826
e 31 961
e 31 494
e 31 356
e 32 164
e 32 571
e 32 969
e 32 959
e 32 57
e 32 189
e 33 74
e 33 184
e 33 901
e 33 139
e 34 272
e 34 341
e 35 858
e 35 244
e 35 806
e 35 693
e 35 418
e 35 333
e 36 569
e 36 541
e 36 992
e 37 795
e 37 691
e 37 172
e 37 302
e 37 463
e 37 735
e 38 965
e 38 433
e 38 680
e 39 305
e 39 327
e 39 407
e 39 612
e 43 74
e 43 154
e 43 317
e 43 528
e 44 898
e 44 226
e 44 981
e 44 855
e 44 679
e 45 212
e 45 256
e 45 540
e 45 199
e 45 258
e 46 325
e 46 89
e 46 172
e 47 264
e 47 373
e 47 860
e 47 93
e 48 794
e 48 162
e 48 510
e 48 103
e 50 426
e 50 931
e 50 273
e 50 66
e 50 187
e 51 193
e 51 449
e 51 559
e 53 483
e 53 56
e 53 296
e 53 660
e 53 665
e 53 275
e 53 589
e 56 868
e 56 167
e 56 947
e 56 777
e 56 533
e 56 235
e 57 608
e 57 212
e 57 184
e 57 725
e 58 71
e 58 406
e 58 725
e 58 332
e 58 911
e 58 685
e 59 88
e 59 678
e 59 132
e 59 269
e 59 900
e 60 311
e 60 747
e 60 980
e 61 465
e 61 840
e 61 99
e 62 748
e 62 204
e 62 286
e 63 89
e 63 284
e 63 671
e 63 200
e 63 140
e 63 563
e 64 677
e 64 415
e 64 488
e 64 297
e 64 550
e 66 127
e 66 740
e 68 139
e 68 158
e 68 122
e 68 160
e 68 639
e 68 578
e 69 477
e 69 200
e 69 123
e 69 483
e 69 447
e 70 354
e 70 989
e 70 693
e 71 716
e 71 617
e 72 672
e 72 706
e 72 954
e 72 634
e 73 300
e 73 980
e 73 840
e 74 958
e 74 204
e 74 929
e 75 141
e 75 590
e 75 286
e 75 815
e 76 340
e 76 562
e 76 711
e 76 230
e 77 769
e 77 559
e 77 609
e 77 678
e 77 407
e 77 687
e 77 180
e 78 440
e 78 220
e 78 258
e 78 439
e 80 937
e 80 773
e 80 811
e 80 96
e 80 515
e 80 885
e 81 379
e 81 664
e 81 368
e 82 961
e 82 873
e 82 263
e 82 913
e 83 843
e 83 639
e 83 172
e 85 347
e 85 411
e 85 264
e 85 821
e 86 780
e 86 946
e 86 702
e 86 404
e 88 713
e 88 592
e 88 588
e 88 801
e 89 340
e 89 561
e 89 148
e 89 678
e 89 717
e 89 592
e 89 488
e 90 746
e 90 445
e 90 937
e 90 292
e 90 878
e 90 844
e 90 110
e 91 691
e 91 624
e 91 726
e 91 466
e 92 514
e 92 989
e 92 719
e 92 576
e 92 390
e 92 431
e 92 618
e 93 841
e 93 995
e 93 353
e 94 654
e 94 597
e 94 406
e 94 872
e 94 707
e 95 767
e 95 603
e 95 862
e 95 353
e 95 322
e 95 531
e 96 193
e 96 741
e 96 686
e 96 638
e 96 588
e 97 655
e 97 673
e 97 844
e 97 322
e 97 964
e 97 477
e 98 562
e 98 993
e 98 481
e 98 525
e 98 374
e 98 572
e 99 577
e 99 431
e 99 360
e 103 750
e 103 158
e 103 564
e 104 769
e 104 116
e 104 326
e 104 844
e 104 608
e 105 607
e 105 470
e 105 710
e 105 828
e 106 665
e 106 132
e 106 370
e 107 679
e 107 685
e 107 762
e 108 830
e 108 371
e 108 778
e 108 236
e 109 802
e 109 248
e 109 641
e 110 542
e 110 832
e 110 264
e 110 873
e 110 115
e 110 810
e 110 981
e 113 321
e 113 876
e 113 986
e 113 395
e 115 771
e 115 965
e 115 397
e 116 303
e 116 627
e 117 567
e 117 244
e 117 872
e 117 375
e 117 232
e 117 724
e 117 475
e 117 982
e 118 205
e 118 871
e 118 648
e 118 628
e 118 900
e 118 188
e 118 519
e 119 717
e 119 345
e 119 564
e 119 664
e 119 203
e 120 973
e 120 869
e 120 540
e 122 960
e 122 515
e 122 729
e 122 818
e 122 872
e 122 126
e 122 914
e 123 243
e 123 379
e 123 933
e 124 438
e 124 541
e 124 601
e 124 692
e 125 952
e 125 283
e 125 871
e 125 713
e 125 913
e 126 686
e 126 438
e 127 669
e 127 747
e 127 927
e 128 806
e 128 823
e 128 974
e 128 208
e 128 648
e 128 818
e 128 285
e 130 853
e 130 957
e 130 686
e 130 340
e 130 358
e 131 430
e 131 741
e 131 787
e 131 565
e 131 889
e 131 409
e 132 586
e 132 363
e 132 847
e 132 200
e 132 589
e 132 202
e 135 923
e 135 424
e 135 901
e 135 181
e 135 987
e 138 777
e 138 179
e 138 908
e 139 818
e 139 943
e 140 698
e 140 721
e 141 404
e 141 906
e 141 921
e 142 237
e 142 807
e 142 553
e 142 907
e 142 160
e 144 229
e 144 392
e 144 298
e 145 947
e 145 732
e 145 481
e 146 756
e 146 659
e 146 616
e 146 761
e 147 922
e 147 860
e 147 295
e 148 165
e 148 805
e 149 953
e 149 964
e 149 705
e 149 642
e 149 462
e 149 759
e 149 891
e 150 238
e 150 640
e 150 320
e 150 709
e 152 694
e 152 688
e 152 585
e 152 438
e 152 167
e 152 297
e 152 370
e 153 652
e 153 818
e 153 614
e 154 503
e 154 523
e 154 569
e 156 809
e 156 880
e 156 488
e 157 853
e 157 748
e 157 739
e 157 603
e 157 716
e 157 880
e 157 238
e 158 767
e 158 240
e 158 660
e 159 191
e 159 339
e 159 943
e 160 617
e 160 180
e 160 748
e 161 762
e 161 295
e 161 543
e 162 954
e 162 943
e 162 515
e 162 730
e 164 719
e 164 725
e 164 965
e 164 860
e 164 839
e 165 243
e 165 452
e 167 639
e 167 926
e 167 925
e 167 344
e 168 260
e 168 627
e 168 853
e 169 602
e 169 179
e 169 220
e 171 821
e 171 705
e 171 345
e 172 926
e 172 951
e 174 532
e 174 362
e 174 181
e 174 735
e 176 961
e 176 354
e 176 959
e 176 513
e 176 356
e 177 664
e 177 311
e 177 672
e 177 948
e 177 277
e 177 227
e 177 743
e 178 968
e 178 221
e 178 234
e 178 627
e 179 510
e 180 553
e 180 964
e 180 510
e 180 273
e 181 307
e 181 781
e 181 454
e 181 247
e 184 728
e 184 873
e 184 962
e 184 269
e 184 927
e 185 360
e 185 775
e 185 975
e 185 200
e 187 507
e 187 314
e 187 622
e 187 199
e 187 349
e 187 796
e 188 416
e 188 764
e 189 431
e 189 938
e 191 344
e 191 396
e 192 471
e 192 972
e 192 532
e 193 271
e 193 886
e 193 541
e 193 823
e 194 835
e 194 274
e 194 889
e 195 637
e 195 968
e 195 808
e 195 788
e 195 599
e 196 400
e 196 291
e 196 786
e 197 656
e 197 446
e 198 369
e 198 793
e 198 837
e 198 933
e 198 531
e 198 254
e 199 503
e 199 728
e 199 380
e 200 705
e 200 376
e 200 743
e 200 949
e 202 392
e 202 369
e 202 424
e 203 826
e 203 520
e 203 929
e 204 615
e 204 672
e 204 375
e 205 864
e 205 911
e 205 791
e 205 268
e 205 469
e 205 382
e 205 875
e 208 628
e 208 445
e 208 515
e 209 565
e 209 637
e 209 929
e 212 761
e 212 507
e 212 268
e 212 893
e 212 483
e 214 920
e 214 914
e 216 223
e 216 607
e 216 239
e 216 827
e 217 689
e 217 698
e 217 906
e 217 974
e 217 911
e 219 335
e 219 304
e 219 767
e 219 663
e 219 281
e 220 782
e 220 395
e 220 483
e 220 580
e 220 951
e 221 407
e 221 296
e 221 418
e 221 972
e 223 633
e 223 471
e 223 708
e 223 466
e 223 753
e 224 750
e 224 878
e 224 791
e 224 408
e 224 683
e 224 453
e 225 513
e 225 527
e 225 663
e 225 721
e 225 469
e 226 894
e 226 663
e 226 846
e 227 375
e 227 840
e 227 411
e 227 771
e 229 732
e 229 897
e 230 617
e 230 416
e 232 693
e 232 449
e 232 838
e 232 432
e 232 968
e 234 379
e 234 418
e 234 813
e 235 880
e 235 695
e 236 534
e 236 304
e 236 995
e 236 329
e 237 523
e 237 296
e 237 860
e 237 512
e 238 335
e 238 302
e 238 968
e 238 578
e 239 630
e 239 359
e 239 790
e 240 298
e 240 741
e 240 713
e 243 901
e 244 838
e 244 720
e 244 256
e 247 333
e 247 659
e 247 277
e 248 446
e 248 850
e 249 935
e 249 662
e 249 577
e 249 350
e 249 637
e 249 390
e 250 624
e 250 837
e 250 542
e 253 631
e 253 785
e 253 335
e 254 852
e 256 406
e 256 331
e 257 475
e 257 496
e 257 376
e 258 438
e 259 326
e 259 712
e 259 813
e 259 400
e 260 323
e 260 343
e 260 967
e 262 891
e 262 623
e 262 714
e 262 956
e 263 879
e 263 771
e 263 502
e 263 580
e 264 966
e 264 718
e 264 328
e 266 733
e 266 915
e 266 462
e 266 456
e 266 794
e 268 608
e 268 558
e 268 943
e 268 644
e 269 644
e 269 577
e 269 355
e 270 555
e 270 946
e 270 767
e 270 664
e 271 407
e 271 622
e 271 571
e 272 348
e 272 512
e 272 522
e 272 958
e 273 435
e 273 957
e 273 780
e 274 835
e 274 921
e 274 989
e 274 897
e 274 832
e 274 421
e 275 993
e 275 832
e 276 661
e 276 604
e 276 835
e 276 954
e 276 295
e 276 572
e 277 519
e 277 527
e 278 438
e 278 458
e 278 477
e 278 616
e 280 917
e 280 899
e 281 608
e 281 893
e 281 408
e 283 816
e 283 530
e 284 510
e 284 331
e 285 719
e 285 933
e 285 743
e 286 359
e 286 374
e 287 959
e 287 470
e 287 711
e 291 332
e 291 686
e 291 588
e 292 921
e 292 924
e 295 651
e 295 630
e 295 418
e 295 661
e 296 356
e 296 314
e 296 422
e 296 565
e 297 665
e 298 634
e 298 864
e 298 341
e 298 349
e 298 598
e 298 651
e 299 527
e 299 525
e 299 358
e 299 823
e 300 936
e 300 945
e 300 373
e 300 327
e 302 913
e 302 326
e 303 892
e 303 941
e 304 638
e 304 593
e 304 815
e 304 368
e 305 979
e 305 827
e 305 376
e 307 843
e 307 948
e 307 953
e 307 751
e 310 660
e 310 674
e 310 787
e 310 877
e 311 824
e 311 358
e 311 841
e 311 714
e 311 321
e 313 544
e 313 895
e 313 817
e 314 813
e 314 343
e 317 588
e 317 494
e 317 841
e 320 809
e 320 895
e 320 711
e 321 322
e 321 559
e 321 966
e 321 591
e 322 535
e 322 987
e 322 496
e 322 642
e 322 968
e 323 779
e 323 917
e 324 328
e 324 808
e 324 687
e 325 734
e 325 941
e 325 333
e 326 757
e 326 527
e 326 499
e 326 593
e 326 870
e 327 549
e 327 466
e 327 733
e 328 491
e 328 993
e 329 333
e 329 564
e 329 711
e 329 396
e 331 811
e 331 604
e 331 849
e 331 957
e 331 987
e 332 510
e 332 410
e 332 786
e 332 995
e 332 886
e 333 345
e 333 648
e 335 949
e 335 712
e 338 540
e 338 777
e 338 518
e 338 494
e 339 380
e 339 972
e 340 902
e 341 885
e 341 652
e 341 535
e 342 694
e 342 730
e 342 646
e 343 812
e 343 741
e 344 926
e 344 973
e 344 864
e 345 990
e 346 671
e 346 496
e 346 615
e 346 569
e 347 994
e 347 511
e 347 860
e 348 433
e 348 467
e 349 699
e 349 757
e 350 761
e 350 812
e 350 587
e 350 773
e 350 473
e 350 449
e 353 669
e 353 416
e 354 454
e 354 374
e 355 692
e 355 920
e 355 641
e 355 686
e 355 543
e 355 728
e 356 992
e 357 778
e 357 510
e 357 931
e 357 578
e 358 380
e 358 460
e 358 719
e 358 921
e 358 918
e 359 639
e 359 362
e 359 821
e 360 879
e 360 711
e 361 707
e 361 615
e 361 430
e 361 433
e 362 692
e 362 368
e 362 366
e 363 589
e 363 683
e 366 779
e 366 891
e 366 977
e 366 612
e 366 466
e 368 369
e 368 612
e 368 630
e 369 543
e 369 445
e 369 778
e 370 848
e 370 537
e 371 892
e 371 441
e 372 992
e 372 675
e 372 983
e 372 397
e 372 745
e 373 1000
e 373 945
e 373 872
e 373 627
e 373 888
e 374 567
e 374 505
e 374 622
e 375 421
e 375 907
e 375 673
e 375 829
e 375 852
e 376 887
e 376 825
e 376 730
e 378 661
e 378 699
e 378 408
e 379 698
e 379 499
e 380 764
e 380 680
e 381 491
e 381 580
e 381 452
e 381 719
e 382 908
e 382 755
e 382 475
e 382 660
e 383 1000
e 383 549
e 384 949
e 384 900
e 384 416
e 386 954
e 388 496
e 388 804
e 388 576
e 388 479
e 390 836
e 390 917
e 390 426
e 391 628
e 391 933
e 391 556
e 391 562
e 392 640
e 392 851
e 392 729
e 395 964
e 395 992
e 396 683
e 397 610
e 397 590
e 397 954
e 397 709
e 400 978
e 400 593
e 400 810
e 404 443
e 404 527
e 404 862
e 404 553
e 406 450
e 406 514
e 407 443
e 407 953
e 407 970
e 407 861
e 408 543
e 409 456
e 409 711
e 409 666
e 410 423
e 410 861
e 410 511
e 410 942
e 410 561
e 410 671
e 410 515
e 410 708
e 410 416
e 411 710
e 411 952
e 411 537
e 414 938
e 414 988
e 414 669
e 414 447
e 415 535
e 415 835
e 415 802
e 418 648
e 418 697
e 418 746
e 419 848
e 419 878
e 419 800
e 419 975
e 421 911
e 421 710
e 421 450
e 422 675
e 422 465
e 422 720
e 422 827
e 423 471
e 423 725
e 423 687
e 423 944
e 424 760
e 424 455
e 424 867
e 424 616
e 425 709
e 425 588
e 425 713
e 426 609
e 426 671
e 427 892
e 427 959
e 427 907
e 427 508
e 428 565
e 428 648
e 428 980
e 430 446
e 430 553
e 430 490
e 431 569
e 431 956
e 431 699
e 431 643
e 432 837
e 432 435
e 432 572
e 433 879
e 434 967
e 434 582
e 434 654
e 434 486
e 436 662
e 436 601
e 436 841
e 438 876
e 438 470
e 438 781
e 439 664
e 439 977
e 439 908
e 439 986
e 439 675
e 440 603
e 440 851
e 440 757
e 441 913
e 441 846
e 441 631
e 442 839
e 442 583
e 442 935
e 442 546
e 442 857
e 443 847
e 443 697
e 445 617
e 445 740
e 446 597
e 446 843
e 447 586
e 447 725
e 449 671
e 449 518
e 450 931
e 450 835
e 450 748
e 450 604
e 450 875
e 452 850
e 453 508
e 453 712
e 453 817
e 453 488
e 454 840
e 454 485
e 454 473
e 454 864
e 454 602
e 455 941
e 455 931
e 456 581
e 456 876
e 456 657
e 458 748
e 458 895
e 458 841
e 458 585
e 460 719
e 460 585
e 462 889
e 463 809
e 463 988
e 464 634
e 464 815
e 465 906
e 465 760
e 466 923
e 467 778
e 467 947
e 469 653
e 470 843
e 470 990
e 470 871
e 471 493
e 471 616
e 471 591
e 471 846
e 471 938
e 473 655
e 473 582
e 475 735
e 475 791
e 475 716
e 475 626
e 477 840
e 477 544
e 479 942
e 479 517
e 479 656
e 481 589
e 481 902
e 481 828
e 483 578
e 485 950
e 485 829
e 485 978
e 486 960
e 486 682
e 490 967
e 490 706
e 491 610
e 491 713
e 493 906
e 493 558
e 493 694
e 493 582
e 494 815
e 494 541
e 494 543
e 496 633
e 496 936
e 499 582
e 502 554
e 502 724
e 502 518
e 503 924
e 505 778
e 505 821
e 507 728
e 507 897
e 508 901
e 510 702
e 510 669
e 510 511
e 511 750
e 511 897
e 512 564
e 512 688
e 512 993
e 512 743
e 513 878
e 513 832
e 514 931
e 514 812
e 515 710
e 517 810
e 517 520
e 517 717
e 517 957
e 518 854
e 518 901
e 518 522
e 519 925
e 520 824
e 520 961
e 521 975
e 521 785
e 521 671
e 522 555
e 522 900
e 522 993
e 523 932
e 523 929
e 523 933
e 523 899
e 525 981
e 526 588
e 526 844
e 526 747
e 526 920
e 527 567
e 528 531
e 528 778
e 528 995
e 530 713
e 530 877
e 530 826
e 531 827
e 531 769
e 532 608
e 532 812
e 532 640
e 533 589
e 533 584
e 534 763
e 534 878
e 534 659
e 535 925
e 537 987
e 537 934
e 537 556
e 540 767
e 540 929
e 541 639
e 541 764
e 542 604
e 542 652
e 543 745
e 543 710
e 543 952
e 543 871
e 543 854
e 544 898
e 544 972
e 544 680
e 545 880
e 545 561
e 545 644
e 546 666
e 546 687
e 549 968
e 550 612
e 550 618
e 550 745
e 551 878
e 551 989
e 553 929
e 553 565
e 553 640
e 554 954
e 554 601
e 554 782
e 555 915
e 556 887
e 558 684
e 558 877
e 558 571
e 558 690
e 559 935
e 559 578
e 559 826
e 559 982
e 561 848
e 562 564
e 562 726
e 563 824
e 563 870
e 563 648
e 563 622
e 564 836
e 564 775
e 565 687
e 567 778
e 567 992
e 567 664
e 568 772
e 568 862
e 568 817
e 568 892
e 568 590
e 572 772
e 572 993
e 572 816
e 574 958
e 574 697
e 574 615
e 574 640
e 576 889
e 577 775
e 578 995
e 578 974
e 578 747
e 580 585
e 580 902
e 581 752
e 581 876
e 581 924
e 581 850
e 582 880
e 582 642
e 583 885
e 583 967
e 583 951
e 583 627
e 583 825
e 583 690
e 584 589
e 585 604
e 585 689
e 585 788
e 586 876
e 586 779
e 587 719
e 587 634
e 587 841
e 587 977
e 587 616
e 588 879
e 588 978
e 588 652
e 588 821
e 588 733
e 588 813
e 588 659
e 589 661
e 589 943
e 589 817
e 589 592
e 589 673
e 590 616
e 591 597
e 592 972
e 592 853
e 598 653
e 598 750
e 599 683
e 599 825
e 601 898
e 601 928
e 601 800
e 602 805
e 602 603
e 602 772
e 602 908
e 605 858
e 605 713
e 605 886
e 605 777
e 607 631
e 607 689
e 609 790
e 609 769
e 610 944
e 611 639
e 611 862
e 611 983
e 612 763
e 612 735
e 612 804
e 612 803
e 612 931
e 614 850
e 614 985
e 614 630
e 614 643
e 614 780
e 616 977
e 616 734
e 616 751
e 617 895
e 617 793
e 617 633
e 618 630
e 618 690
e 618 662
e 618 885
e 622 999
e 623 993
e 623 832
e 624 643
e 626 720
e 626 938
e 627 894
e 630 934
e 630 962
e 633 826
e 634 752
e 634 950
e 634 735
e 634 918
e 638 932
e 638 914
e 638 807
e 639 724
e 639 815
e 639 1000
e 639 740
e 639 757
e 641 970
e 643 994
e 643 957
e 643 739
e 643 660
e 643 689
e 644 712
e 646 918
e 646 954
e 648 969
e 651 986
e 651 960
e 651 904
e 652 807
e 652 936
e 653 779
e 653 876
e 654 707
e 654 806
e 654 781
e 655 893
e 656 733
e 656 815
e 656 964
e 657 750
e 657 723
e 657 902
e 659 718
e 659 988
e 660 921
e 662 853
e 662 815
e 664 741
e 666 878
e 666 738
e 666 782
e 669 747
e 669 990
e 672 914
e 673 931
e 673 824
e 674 795
e 674 923
e 677 769
e 677 794
e 678 821
e 678 994
e 679 918
e 679 920
e 679 870
e 679 952
e 680 806
e 680 937
e 682 934
e 682 992
e 683 739
e 684 1000
e 684 825
e 686 847
e 686 869
e 687 739
e 687 756
e 688 861
e 688 810
e 689 816
e 690 793
e 690 972
e 691 849
e 694 932
e 695 950
e 695 764
e 695 802
e 697 912
e 697 805
e 697 985
e 698 853
e 698 829
e 698 958
e 702 709
e 705 740
e 707 756
e 708 1000
e 708 927
e 709 848
e 711 964
e 711 936
e 712 898
e 713 937
e 714 726
e 716 872
e 717 968
e 717 841
e 718 750
e 718 851
e 719 793
e 719 950
e 719 787
e 721 840
e 721 953
e 723 986
e 723 855
e 724 780
e 726 778
e 728 971
e 729 917
e 729 900
e 730 950
e 732 982
e 734 855
e 738 802
e 738 936
e 739 795
e 740 914
e 740 854
e 741 968
e 741 811
e 741 956
e 743 761
e 743 849
e 743 950
e 746 786
e 746 884
e 747 787
e 748 879
e 751 806
e 752 829
e 752 793
e 753 887
e 753 999
e 753 968
e 755 883
e 755 772
e 756 922
e 757 809
e 757 854
e 757 828
e 759 801
e 759 803
e 760 970
e 761 917
e 761 892
e 761 941
e 762 921
e 763 884
e 764 868
e 764 908
e 767 860
e 769 826
e 772 933
e 773 838
e 778 921
e 778 869
e 779 893
e 780 817
e 782 808
e 785 981
e 786 805
e 788 973
e 790 972
e 791 836
e 796 870
e 796 899
e 800 900
e 800 830
e 801 857
e 802 948
e 803 912
e 804 962
e 804 891
e 805 954
e 806 944
e 811 941
e 812 975
e 815 875
e 815 838
e 816 843
e 817 823
e 818 885
e 821 917
e 823 827
e 827 839
e 828 921
e 829 931
e 829 889
e 830 846
e 835 900
e 837 904
e 837 932
e 838 969
e 839 985
e 840 851
e 846 944
e 848 971
e 852 857
e 852 974
e 852 960
e 854 942
e 855 894
e 857 886
e 864 902
e 867 893
e 867 950
e 872 952
e 875 915
e 878 923
e 883 937
e 883 892
e 884 907
e 887 979
e 888 906
e 888 958
e 893 945
e 898 1000
e 898 907
e 900 932
e 900 925
e 904 915
e 906 911
e 907 908
e 908 928
e 911 938
e 912 961
e 921 968
e 922 946
e 923 941
e 924 926
e 928 1000
e 931 945
e 933 938
e 944 994
e 951 969
e 952 971
e 967 983
e 968 999
e 981 995
