txt_Ins/graph-1000-693.txt
n 1000
e 0 269
e 0 540
e 0 168
e 0 689
e 1 312
e 1 237
e 1 947
e 1 62
e 1 362
e 1 474
e 1 367
e 1 297
e 2 949
e 2 84
e 2 585
e 3 715
e 3 32
e 3 914
e 3 760
e 3 986
e 3 859
e 3 705
e 4 198
e 4 117
e 4 188
e 6 459
e 6 540
e 6 325
e 6 965
e 6 963
e 6 532
e 7 125
e 7 684
e 7 149
e 7 577
e 7 916
e 8 953
e 8 958
e 8 784
e 8 310
e 9 584
e 9 20
e 9 354
e 9 253
e 9 639
e 10 860
e 10 385
e 10 413
e 10 367
e 11 215
e 11 979
e 11 814
e 11 279
e 12 359
e 12 343
e 12 857
e 12 802
e 12 155
e 12 399
e 13 978
e 13 966
e 13 463
e 14 847
e 14 867
e 14 382
e 14 322
e 14 98
e 15 697
e 15 744
e 15 213
e 17 946
e 17 550
e 17 148
e 20 434
e 20 435
e 20 283
e 22 360
e 22 284
e 22 405
e 23 274
e 23 301
e 23 913
e 23 857
e 24 707
e 24 225
e 24 522
e 24 347
e 24 446
e 24 583
e 26 790
e 26 188
e 26 196
e 26 171
e 26 970
e 27 385
e 27 571
e 27 963
e 27 380
e 27 33
e 28 345
e 28 816
e 28 662
e 29 614
e 29 591
e 29 636
e 29 678
e 29 851
e 30 825
e 30 960
e 30 493
e 30 355
e 31 163
e 31 570
e 31 968
e 31 958
e 31 56
e 31 188
e 32 73
e 32 183
e 32 900
e 32 138
e 33 271
e 33 340
e 34 857
e 34 243
e 34 805
e 34 692
e 34 417
e 34 332
e 35 568
e 35 540
e 35 991
e 36 794
e 36 690
e 36 171
e 36 301
e 36 462
e 36 734
e 37 964
e 37 432
e 37 679
e 38 304
e 38 326
e 38 406
e 38 611
e 42 73
e 42 153
e 42 316
e 42 527
e 43 897
e 43 225
e 43 980
e 43 854
e 43 678
e 44 211
e 44 255
e 44 539
e 44 198
e 44 257
e 45 324
e 45 88
e 45 171
e 46 263
e 46 372
e 46 859
e 46 92
e 47 793
e 47 161
e 47 509
e 47 102
e 49 425
e 49 930
e 49 272
e 49 65
e 49 186
e 50 192
e 50 448
e 50 558
e 52 482
e 52 55
e 52 295
e 52 659
e 52 664
e 52 274
e 52 588
e 55 867
e 55 166
e 55 946
e 55 776
e 55 532
e 55 234
e 56 607
e 56 211
e 56 183
e 56 724
e 57 70
e 57 405
e 57 724
e 57 331
e 57 910
e 57 684
e 58 87
e 58 677
e 58 131
e 58 268
e 58 899
e 59 310
e 59 746
e 59 979
e 60 464
e 60 839
e 60 98
e 61 747
e 61 203
e 61 285
e 62 88
e 62 283
e 62 670
e 62 199
e 62 139
e 62 562
e 63 676
e 63 414
e 63 487
e 63 296
e 63 549
e 65 126
e 65 739
e 67 138
e 67 157
e 67 121
e 67 159
e 67 638
e 67 577
e 68 476
e 68 199
e 68 122
e 68 482
e 68 446
e 69 353
e 69 988
e 69 692
e 70 715
e 70 616
e 71 671
e 71 705
e 71 953
e 71 633
e 72 299
e 72 979
e 72 839
e 73 957
e 73 203
e 73 928
e 74 140
e 74 589
e 74 285
e 74 814
e 75 339
e 75 561
e 75 710
e 75 229
e 76 768
e 76 558
e 76 608
e 76 677
e 76 406
e 76 686
e 76 179
e 77 439
e 77 219
e 77 257
e 77 438
e 79 936
e 79 772
e 79 810
e 79 95
e 79 514
e 79 884
e 80 378
e 80 663
e 80 367
e 81 960
e 81 872
e 81 262
e 81 912
e 82 842
e 82 638
e 82 171
e 84 346
e 84 410
e 84 263
e 84 820
e 85 779
e 85 945
e 85 701
e 85 403
e 87 712
e 87 591
e 87 587
e 87 800
e 88 339
e 88 560
e 88 147
e 88 677
e 88 716
e 88 591
e 88 487
e 89 745
e 89 444
e 89 936
e 89 291
e 89 877
e 89 843
e 89 109
e 90 690
e 90 623
e 90 725
e 90 465
e 91 513
e 91 988
e 91 718
e 91 575
e 91 389
e 91 430
e 91 617
e 92 840
e 92 994
e 92 352
e 93 653
e 93 596
e 93 405
e 93 871
e 93 706
e 94 766
e 94 602
e 94 861
e 94 352
e 94 321
e 94 530
e 95 192
e 95 740
e 95 685
e 95 637
e 95 587
e 96 654
e 96 672
e 96 843
e 96 321
e 96 963
e 96 476
e 97 561
e 97 992
e 97 480
e 97 524
e 97 373
e 97 571
e 98 576
e 98 430
e 98 359
e 102 749
e 102 157
e 102 563
e 103 768
e 103 115
e 103 325
e 103 843
e 103 607
e 104 606
e 104 469
e 104 709
e 104 827
e 105 664
e 105 131
e 105 369
e 106 678
e 106 684
e 106 761
e 107 829
e 107 370
e 107 777
e 107 235
e 108 801
e 108 247
e 108 640
e 109 541
e 109 831
e 109 263
e 109 872
e 109 114
e 109 809
e 109 980
e 112 320
e 112 875
e 112 985
e 112 394
e 114 770
e 114 964
e 114 396
e 115 302
e 115 626
e 116 566
e 116 243
e 116 871
e 116 374
e 116 231
e 116 723
e 116 474
e 116 981
e 117 204
e 117 870
e 117 647
e 117 627
e 117 899
e 117 187
e 117 518
e 118 716
e 118 344
e 118 563
e 118 663
e 118 202
e 119 972
e 119 868
e 119 539
e 121 959
e 121 514
e 121 728
e 121 817
e 121 871
e 121 125
e 121 913
e 122 242
e 122 378
e 122 932
e 123 437
e 123 540
e 123 600
e 123 691
e 124 951
e 124 282
e 124 870
e 124 712
e 124 912
e 125 685
e 125 437
e 126 668
e 126 746
e 126 926
e 127 805
e 127 822
e 127 973
e 127 207
e 127 647
e 127 817
e 127 284
e 129 852
e 129 956
e 129 685
e 129 339
e 129 357
e 130 429
e 130 740
e 130 786
e 130 564
e 130 888
e 130 408
e 131 585
e 131 362
e 131 846
e 131 199
e 131 588
e 131 201
e 134 922
e 134 423
e 134 900
e 134 180
e 134 986
e 137 776
e 137 178
e 137 907
e 138 817
e 138 942
e 139 697
e 139 720
e 140 403
e 140 905
e 140 920
e 141 236
e 141 806
e 141 552
e 141 906
e 141 159
e 143 228
e 143 391
e 143 297
e 144 946
e 144 731
e 144 480
e 145 755
e 145 658
e 145 615
e 145 760
e 146 921
e 146 859
e 146 294
e 147 164
e 147 804
e 148 952
e 148 963
e 148 704
e 148 641
e 148 461
e 148 758
e 148 890
e 149 237
e 149 639
e 149 319
e 149 708
e 151 693
e 151 687
e 151 584
e 151 437
e 151 166
e 151 296
e 151 369
e 152 651
e 152 817
e 152 613
e 153 502
e 153 522
e 153 568
e 155 808
e 155 879
e 155 487
e 156 852
e 156 747
e 156 738
e 156 602
e 156 715
e 156 879
e 156 237
e 157 766
e 157 239
e 157 659
e 158 190
e 158 338
e 158 942
e 159 616
e 159 179
e 159 747
e 160 761
e 160 294
e 160 542
e 161 953
e 161 942
e 161 514
e 161 729
e 163 718
e 163 724
e 163 964
e 163 859
e 163 838
e 164 242
e 164 451
e 166 638
e 166 925
e 166 924
e 166 343
e 167 259
e 167 626
e 167 852
e 168 601
e 168 178
e 168 219
e 170 820
e 170 704
e 170 344
e 171 925
e 171 950
e 173 531
e 173 361
e 173 180
e 173 734
e 175 960
e 175 353
e 175 958
e 175 512
e 175 355
e 176 663
e 176 310
e 176 671
e 176 947
e 176 276
e 176 226
e 176 742
e 177 967
e 177 220
e 177 233
e 177 626
e 178 509
e 179 552
e 179 963
e 179 509
e 179 272
e 180 306
e 180 780
e 180 453
e 180 246
e 183 727
e 183 872
e 183 961
e 183 268
e 183 926
e 184 359
e 184 774
e 184 974
e 184 199
e 186 506
e 186 313
e 186 621
e 186 198
e 186 348
e 186 795
e 187 415
e 187 763
e 188 430
e 188 937
e 190 343
e 190 395
e 191 470
e 191 971
e 191 531
e 192 270
e 192 885
e 192 540
e 192 822
e 193 834
e 193 273
e 193 888
e 194 636
e 194 967
e 194 807
e 194 787
e 194 598
e 195 399
e 195 290
e 195 785
e 196 655
e 196 445
e 197 368
e 197 792
e 197 836
e 197 932
e 197 530
e 197 253
e 198 502
e 198 727
e 198 379
e 199 704
e 199 375
e 199 742
e 199 948
e 201 391
e 201 368
e 201 423
e 202 825
e 202 519
e 202 928
e 203 614
e 203 671
e 203 374
e 204 863
e 204 910
e 204 790
e 204 267
e 204 468
e 204 381
e 204 874
e 207 627
e 207 444
e 207 514
e 208 564
e 208 636
e 208 928
e 211 760
e 211 506
e 211 267
e 211 892
e 211 482
e 213 919
e 213 913
e 215 222
e 215 606
e 215 238
e 215 826
e 216 688
e 216 697
e 216 905
e 216 973
e 216 910
e 218 334
e 218 303
e 218 766
e 218 662
e 218 280
e 219 781
e 219 394
e 219 482
e 219 579
e 219 950
e 220 406
e 220 295
e 220 417
e 220 971
e 222 632
e 222 470
e 222 707
e 222 465
e 222 752
e 223 749
e 223 877
e 223 790
e 223 407
e 223 682
e 223 452
e 224 512
e 224 526
e 224 662
e 224 720
e 224 468
e 225 893
e 225 662
e 225 845
e 226 374
e 226 839
e 226 410
e 226 770
e 228 731
e 228 896
e 229 616
e 229 415
e 231 692
e 231 448
e 231 837
e 231 431
e 231 967
e 233 378
e 233 417
e 233 812
e 234 879
e 234 694
e 235 533
e 235 303
e 235 994
e 235 328
e 236 522
e 236 295
e 236 859
e 236 511
e 237 334
e 237 301
e 237 967
e 237 577
e 238 629
e 238 358
e 238 789
e 239 297
e 239 740
e 239 712
e 242 900
e 243 837
e 243 719
e 243 255
e 246 332
e 246 658
e 246 276
e 247 445
e 247 849
e 248 934
e 248 661
e 248 576
e 248 349
e 248 636
e 248 389
e 249 623
e 249 836
e 249 541
e 252 630
e 252 784
e 252 334
e 253 851
e 255 405
e 255 330
e 256 474
e 256 495
e 256 375
e 257 437
e 258 325
e 258 711
e 258 812
e 258 399
e 259 322
e 259 342
e 259 966
e 261 890
e 261 622
e 261 713
e 261 955
e 262 878
e 262 770
e 262 501
e 262 579
e 263 965
e 263 717
e 263 327
e 265 732
e 265 914
e 265 461
e 265 455
e 265 793
e 267 607
e 267 557
e 267 942
e 267 643
e 268 643
e 268 576
e 268 354
e 269 554
e 269 945
e 269 766
e 269 663
e 270 406
e 270 621
e 270 570
e 271 347
e 271 511
e 271 521
e 271 957
e 272 434
e 272 956
e 272 779
e 273 834
e 273 920
e 273 988
e 273 896
e 273 831
e 273 420
e 274 992
e 274 831
e 275 660
e 275 603
e 275 834
e 275 953
e 275 294
e 275 571
e 276 518
e 276 526
e 277 437
e 277 457
e 277 476
e 277 615
e 279 916
e 279 898
e 280 607
e 280 892
e 280 407
e 282 815
e 282 529
e 283 509
e 283 330
e 284 718
e 284 932
e 284 742
e 285 358
e 285 373
e 286 958
e 286 469
e 286 710
e 290 331
e 290 685
e 290 587
e 291 920
e 291 923
e 294 650
e 294 629
e 294 417
e 294 660
e 295 355
e 295 313
e 295 421
e 295 564
e 296 664
e 297 633
e 297 863
e 297 340
e 297 348
e 297 597
e 297 650
e 298 526
e 298 524
e 298 357
e 298 822
e 299 935
e 299 944
e 299 372
e 299 326
e 301 912
e 301 325
e 302 891
e 302 940
e 303 637
e 303 592
e 303 814
e 303 367
e 304 978
e 304 826
e 304 375
e 306 842
e 306 947
e 306 952
e 306 750
e 309 659
e 309 673
e 309 786
e 309 876
e 310 823
e 310 357
e 310 840
e 310 713
e 310 320
e 312 543
e 312 894
e 312 816
e 313 812
e 313 342
e 316 587
e 316 493
e 316 840
e 319 808
e 319 894
e 319 710
e 320 321
e 320 558
e 320 965
e 320 590
e 321 534
e 321 986
e 321 495
e 321 641
e 321 967
e 322 778
e 322 916
e 323 327
e 323 807
e 323 686
e 324 733
e 324 940
e 324 332
e 325 756
e 325 526
e 325 498
e 325 592
e 325 869
e 326 548
e 326 465
e 326 732
e 327 490
e 327 992
e 328 332
e 328 563
e 328 710
e 328 395
e 330 810
e 330 603
e 330 848
e 330 956
e 330 986
e 331 509
e 331 409
e 331 785
e 331 994
e 331 885
e 332 344
e 332 647
e 334 948
e 334 711
e 337 539
e 337 776
e 337 517
e 337 493
e 338 379
e 338 971
e 339 901
e 340 884
e 340 651
e 340 534
e 341 693
e 341 729
e 341 645
e 342 811
e 342 740
e 343 925
e 343 972
e 343 863
e 344 989
e 345 670
e 345 495
e 345 614
e 345 568
e 346 993
e 346 510
e 346 859
e 347 432
e 347 466
e 348 698
e 348 756
e 349 760
e 349 811
e 349 586
e 349 772
e 349 472
e 349 448
e 352 668
e 352 415
e 353 453
e 353 373
e 354 691
e 354 919
e 354 640
e 354 685
e 354 542
e 354 727
e 355 991
e 356 777
e 356 509
e 356 930
e 356 577
e 357 379
e 357 459
e 357 718
e 357 920
e 357 917
e 358 638
e 358 361
e 358 820
e 359 878
e 359 710
e 360 706
e 360 614
e 360 429
e 360 432
e 361 691
e 361 367
e 361 365
e 362 588
e 362 682
e 365 778
e 365 890
e 365 976
e 365 611
e 365 465
e 367 368
e 367 611
e 367 629
e 368 542
e 368 444
e 368 777
e 369 847
e 369 536
e 370 891
e 370 440
e 371 991
e 371 674
e 371 982
e 371 396
e 371 744
e 372 999
e 372 944
e 372 871
e 372 626
e 372 887
e 373 566
e 373 504
e 373 621
e 374 420
e 374 906
e 374 672
e 374 828
e 374 851
e 375 886
e 375 824
e 375 729
e 377 660
e 377 698
e 377 407
e 378 697
e 378 498
e 379 763
e 379 679
e 380 490
e 380 579
e 380 451
e 380 718
e 381 907
e 381 754
e 381 474
e 381 659
e 382 999
e 382 548
e 383 948
e 383 899
e 383 415
e 385 953
e 387 495
e 387 803
e 387 575
e 387 478
e 389 835
e 389 916
e 389 425
e 390 627
e 390 932
e 390 555
e 390 561
e 391 639
e 391 850
e 391 728
e 394 963
e 394 991
e 395 682
e 396 609
e 396 589
e 396 953
e 396 708
e 399 977
e 399 592
e 399 809
e 403 442
e 403 526
e 403 861
e 403 552
e 405 449
e 405 513
e 406 442
e 406 952
e 406 969
e 406 860
e 407 542
e 408 455
e 408 710
e 408 665
e 409 422
e 409 860
e 409 510
e 409 941
e 409 560
e 409 670
e 409 514
e 409 707
e 409 415
e 410 709
e 410 951
e 410 536
e 413 937
e 413 987
e 413 668
e 413 446
e 414 534
e 414 834
e 414 801
e 417 647
e 417 696
e 417 745
e 418 847
e 418 877
e 418 799
e 418 974
e 420 910
e 420 709
e 420 449
e 421 674
e 421 464
e 421 719
e 421 826
e 422 470
e 422 724
e 422 686
e 422 943
e 423 759
e 423 454
e 423 866
e 423 615
e 424 708
e 424 587
e 424 712
e 425 608
e 425 670
e 426 891
e 426 958
e 426 906
e 426 507
e 427 564
e 427 647
e 427 979
e 429 445
e 429 552
e 429 489
e 430 568
e 430 955
e 430 698
e 430 642
e 431 836
e 431 434
e 431 571
e 432 878
e 433 966
e 433 581
e 433 653
e 433 485
e 435 661
e 435 600
e 435 840
e 437 875
e 437 469
e 437 780
e 438 663
e 438 976
e 438 907
e 438 985
e 438 674
e 439 602
e 439 850
e 439 756
e 440 912
e 440 845
e 440 630
e 441 838
e 441 582
e 441 934
e 441 545
e 441 856
e 442 846
e 442 696
e 444 616
e 444 739
e 445 596
e 445 842
e 446 585
e 446 724
e 448 670
e 448 517
e 449 930
e 449 834
e 449 747
e 449 603
e 449 874
e 451 849
e 452 507
e 452 711
e 452 816
e 452 487
e 453 839
e 453 484
e 453 472
e 453 863
e 453 601
e 454 940
e 454 930
e 455 580
e 455 875
e 455 656
e 457 747
e 457 894
e 457 840
e 457 584
e 459 718
e 459 584
e 461 888
e 462 808
e 462 987
e 463 633
e 463 814
e 464 905
e 464 759
e 465 922
e 466 777
e 466 946
e 468 652
e 469 842
e 469 989
e 469 870
e 470 492
e 470 615
e 470 590
e 470 845
e 470 937
e 472 654
e 472 581
e 474 734
e 474 790
e 474 715
e 474 625
e 476 839
e 476 543
e 478 941
e 478 516
e 478 655
e 480 588
e 480 901
e 480 827
e 482 577
e 484 949
e 484 828
e 484 977
e 485 959
e 485 681
e 489 966
e 489 705
e 490 609
e 490 712
e 492 905
e 492 557
e 492 693
e 492 581
e 493 814
e 493 540
e 493 542
e 495 632
e 495 935
e 498 581
e 501 553
e 501 723
e 501 517
e 502 923
e 504 777
e 504 820
e 506 727
e 506 896
e 507 900
e 509 701
e 509 668
e 509 510
e 510 749
e 510 896
e 511 563
e 511 687
e 511 992
e 511 742
e 512 877
e 512 831
e 513 930
e 513 811
e 514 709
e 516 809
e 516 519
e 516 716
e 516 956
e 517 853
e 517 900
e 517 521
e 518 924
e 519 823
e 519 960
e 520 974
e 520 784
e 520 670
e 521 554
e 521 899
e 521 992
e 522 931
e 522 928
e 522 932
e 522 898
e 524 980
e 525 587
e 525 843
e 525 746
e 525 919
e 526 566
e 527 530
e 527 777
e 527 994
e 529 712
e 529 876
e 529 825
e 530 826
e 530 768
e 531 607
e 531 811
e 531 639
e 532 588
e 532 583
e 533 762
e 533 877
e 533 658
e 534 924
e 536 986
e 536 933
e 536 555
e 539 766
e 539 928
e 540 638
e 540 763
e 541 603
e 541 651
e 542 744
e 542 709
e 542 951
e 542 870
e 542 853
e 543 897
e 543 971
e 543 679
e 544 879
e 544 560
e 544 643
e 545 665
e 545 686
e 548 967
e 549 611
e 549 617
e 549 744
e 550 877
e 550 988
e 552 928
e 552 564
e 552 639
e 553 953
e 553 600
e 553 781
e 554 914
e 555 886
e 557 683
e 557 876
e 557 570
e 557 689
e 558 934
e 558 577
e 558 825
e 558 981
e 560 847
e 561 563
e 561 725
e 562 823
e 562 869
e 562 647
e 562 621
e 563 835
e 563 774
e 564 686
e 566 777
e 566 991
e 566 663
e 567 771
e 567 861
e 567 816
e 567 891
e 567 589
e 571 771
e 571 992
e 571 815
e 573 957
e 573 696
e 573 614
e 573 639
e 575 888
e 576 774
e 577 994
e 577 973
e 577 746
e 579 584
e 579 901
e 580 751
e 580 875
e 580 923
e 580 849
e 581 879
e 581 641
e 582 884
e 582 966
e 582 950
e 582 626
e 582 824
e 582 689
e 583 588
e 584 603
e 584 688
e 584 787
e 585 875
e 585 778
e 586 718
e 586 633
e 586 840
e 586 976
e 586 615
e 587 878
e 587 977
e 587 651
e 587 820
e 587 732
e 587 812
e 587 658
e 588 660
e 588 942
e 588 816
e 588 591
e 588 672
e 589 615
e 590 596
e 591 971
e 591 852
e 597 652
e 597 749
e 598 682
e 598 824
e 600 897
e 600 927
e 600 799
e 601 804
e 601 602
e 601 771
e 601 907
e 604 857
e 604 712
e 604 885
e 604 776
e 606 630
e 606 688
e 608 789
e 608 768
e 609 943
e 610 638
e 610 861
e 610 982
e 611 762
e 611 734
e 611 803
e 611 802
e 611 930
e 613 849
e 613 984
e 613 629
e 613 642
e 613 779
e 615 976
e 615 733
e 615 750
e 616 894
e 616 792
e 616 632
e 617 629
e 617 689
e 617 661
e 617 884
e 621 998
e 622 992
e 622 831
e 623 642
e 625 719
e 625 937
e 626 893
e 629 933
e 629 961
e 632 825
e 633 751
e 633 949
e 633 734
e 633 917
e 637 931
e 637 913
e 637 806
e 638 723
e 638 814
e 638 999
e 638 739
e 638 756
e 640 969
e 642 993
e 642 956
e 642 738
e 642 659
e 642 688
e 643 711
e 645 917
e 645 953
e 647 968
e 650 985
e 650 959
e 650 903
e 651 806
e 651 935
e 652 778
e 652 875
e 653 706
e 653 805
e 653 780
e 654 892
e 655 732
e 655 814
e 655 963
e 656 749
e 656 722
e 656 901
e 658 717
e 658 987
e 659 920
e 661 852
e 661 814
e 663 740
e 665 877
e 665 737
e 665 781
e 668 746
e 668 989
e 671 913
e 672 930
e 672 823
e 673 794
e 673 922
e 676 768
e 676 793
e 677 820
e 677 993
e 678 917
e 678 919
e 678 869
e 678 951
e 679 805
e 679 936
e 681 933
e 681 991
e 682 738
e 683 999
e 683 824
e 685 846
e 685 868
e 686 738
e 686 755
e 687 860
e 687 809
e 688 815
e 689 792
e 689 971
e 690 848
e 693 931
e 694 949
e 694 763
e 694 801
e 696 911
e 696 804
e 696 984
e 697 852
e 697 828
e 697 957
e 701 708
e 704 739
e 706 755
e 707 999
e 707 926
e 708 847
e 710 963
e 710 935
e 711 897
e 712 936
e 713 725
e 715 871
e 716 967
e 716 840
e 717 749
e 717 850
e 718 792
e 718 949
e 718 786
e 720 839
e 720 952
e 722 985
e 722 854
e 723 779
e 725 777
e 727 970
e 728 916
e 728 899
e 729 949
e 731 981
e 733 854
e 737 801
e 737 935
e 738 794
e 739 913
e 739 853
e 740 967
e 740 810
e 740 955
e 742 760
e 742 848
e 742 949
e 745 785
e 745 883
e 746 786
e 747 878
e 750 805
e 751 828
e 751 792
e 752 886
e 752 998
e 752 967
e 754 882
e 754 771
e 755 921
e 756 808
e 756 853
e 756 827
e 758 800
e 758 802
e 759 969
e 760 916
e 760 891
e 760 940
e 761 920
e 762 883
e 763 867
e 763 907
e 766 859
e 768 825
e 771 932
e 772 837
e 777 920
e 777 868
e 778 892
e 779 816
e 781 807
e 784 980
e 785 804
e 787 972
e 789 971
e 790 835
e 795 869
e 795 898
e 799 899
e 799 829
e 800 856
e 801 947
e 802 911
e 803 961
e 803 890
e 804 953
e 805 943
e 810 940
e 811 974
e 814 874
e 814 837
e 815 842
e 816 822
e 817 884
e 820 916
e 822 826
e 826 838
e 827 920
e 828 930
e 828 888
e 829 845
e 834 899
e 836 903
e 836 931
e 837 968
e 838 984
e 839 850
e 845 943
e 847 970
e 851 856
e 851 973
e 851 959
e 853 941
e 854 893
e 856 885
e 863 901
e 866 892
e 866 949
e 871 951
e 874 914
e 877 922
e 882 936
e 882 891
e 883 906
e 886 978
e 887 905
e 887 957
e 892 944
e 897 999
e 897 906
e 899 931
e 899 924
e 903 914
e 905 910
e 906 907
e 907 927
e 910 937
e 911 960
e 920 967
e 921 945
e 922 940
e 923 925
e 927 999
e 930 944
e 932 937
e 943 993
e 950 968
e 951 970
e 966 982
e 967 998
e 980 994
